&control
  calculation = 'scf'
  prefix = 'c_pbe_ci'
  pseudo_dir = '../pseudos'
  outdir = './tmp'
  verbosity = 'high'
/
&system
  ibrav = 0
  nat = 2
  ntyp = 1
  ecutwfc = 30.0
  occupations = 'fixed'
/
&electrons
  conv_thr = 1.0d-12
/
ATOMIC_SPECIES
C 12.011 C_ONCV_PBE-1.2.upf
CELL_PARAMETERS angstrom
0.0000 1.7835 1.7835
1.7835 0.0000 1.7835
1.7835 1.7835 0.0000
ATOMIC_POSITIONS crystal
C 0.00 0.00 0.00
C 0.25 0.25 0.25
K_POINTS automatic
2 2 2 0 0 0
