&control
  calculation = 'bands'
  prefix = 'si_bands_ci'
  pseudo_dir = '../pseudos'
  outdir = './tmp'
  verbosity = 'high'
/
&system
  ibrav = 0
  nat = 2
  ntyp = 1
  ecutwfc = 15.0
  input_dft = 'sla+pw+nogx+nogc'
  occupations = 'fixed'
  nbnd = 8
/
&electrons
  conv_thr = 1.0d-12
/
ATOMIC_SPECIES
Si 28.0855 Si_ONCV_PBE-1.2.upf
CELL_PARAMETERS angstrom
0.000 2.715 2.715
2.715 0.000 2.715
2.715 2.715 0.000
ATOMIC_POSITIONS crystal
Si 0.00 0.00 0.00
Si 0.25 0.25 0.25
K_POINTS crystal
16
0.5000000000 0.5000000000 0.5000000000 1.0
0.3333333333 0.3333333333 0.3333333333 1.0
0.1666666667 0.1666666667 0.1666666667 1.0
0.0000000000 0.0000000000 0.0000000000 1.0
0.1250000000 0.0000000000 0.1250000000 1.0
0.2500000000 0.0000000000 0.2500000000 1.0
0.3750000000 0.0000000000 0.3750000000 1.0
0.5000000000 0.0000000000 0.5000000000 1.0
0.6250000000 0.2500000000 0.6250000000 1.0
0.5357142857 0.2142857143 0.5357142857 1.0
0.4464285714 0.1785714286 0.4464285714 1.0
0.3571428571 0.1428571429 0.3571428571 1.0
0.2678571429 0.1071428571 0.2678571429 1.0
0.1785714286 0.0714285714 0.1785714286 1.0
0.0892857143 0.0357142857 0.0892857143 1.0
0.0000000000 0.0000000000 0.0000000000 1.0
