Pt
 1.0000000000000000
     5.6115994154964417    0.0000000000000000    0.0000000000000000
     2.8057997077482209    4.8597876496818246    0.0000000000000000
     0.0000000000000000    0.0000000000000000   21.8727776044333062
 Pt 
  16
Selective dynamics
Direct
  0.0000000000000000  0.0000000000000000  0.3428919790452153   F   F   F
  0.5000000004012722  0.0000000000000000  0.3428919790452153   F   F   F
 -0.0000000001923175  0.4999999990038840  0.3428919790452153   F   F   F
  0.5000000002089549  0.4999999990038840  0.3428919790452153   F   F   F
  0.1666666657993601  0.1666666670205290  0.4476306597665728   F   F   F
  0.6666666662006324  0.1666666670205290  0.4476306597665728   F   F   F
  0.1666666673890658  0.6666666660244129  0.4476306597665728   F   F   F
  0.6666666677903381  0.6666666660244129  0.4476306597665728   F   F   F
 -0.1666666670205290  0.3333333340410580  0.5519361225321971   T   T   T
  0.3333333333807433  0.3333333340410580  0.5519361225321971   T   T   T
 -0.1666666672128464  0.8333333330449419  0.5519361225321971   T   T   T
  0.3333333331884259  0.8333333330449419  0.5519361225321971   T   T   T
 -0.0000000025351947 -0.0000000020577031  0.6573799345486707   T   T   T
  0.5000000049941701 -0.0000000020577031  0.6573799345486707   T   T   T
 -0.0000000022500205  0.5000000031192902  0.6573799345486707   T   T   T
  0.5000000002089549  0.4999999990038840  0.6573799345486707   T   T   T
