&CONTROL
  calculation = 'scf'
  prefix = 'sige'
  outdir = './tmp'
  pseudo_dir = '/home/wladerer/github/QSuite/tests/fixtures/qe/pseudos'
  tstress = .true.
  tprnfor = .true.
/
&SYSTEM
  ibrav = 2
  celldm(1) = 10.47853136
  nat = 2
  ntyp = 2
  ecutwfc = 45.0
  ecutrho = 240.0
  nr1 = 40, nr2 = 40, nr3 = 40
  occupations = 'fixed'
/
&ELECTRONS
  conv_thr = 1.0d-14
  mixing_beta = 0.7
/
ATOMIC_SPECIES
  Si 28.0855 Si.pbe-n-kjpaw_psl.1.0.0.UPF
  Ge 72.63   Ge.pbe-dn-kjpaw_psl.1.0.0.UPF
ATOMIC_POSITIONS crystal
  Si 0.00 0.00 0.00
  Ge 0.25 0.25 0.25
K_POINTS automatic
  4 4 4 0 0 0
